NAME : X_26_seed_123_id_6
TYPE : CVRP
DIMENSION : 219
EDGE_WEIGHT_TYPE : EUC_2D
CAPACITY : 3
NODE_COORD_SECTION
1	0	0
2	670	322
3	810	722
4	288	389
5	281	365
6	625	170
7	947	241
8	535	147
9	691	307
10	169	437
11	76	959
12	81	156
13	796	552
14	181	46
15	911	579
16	309	427
17	447	750
18	821	733
19	522	512
20	884	764
21	686	603
22	71	201
23	517	486
24	859	948
25	741	782
26	747	766
27	985	38
28	51	46
29	964	578
30	551	716
31	827	314
32	572	721
33	433	796
34	23	465
35	690	592
36	871	415
37	308	355
38	837	892
39	533	911
40	356	457
41	681	795
42	234	711
43	986	356
44	361	298
45	600	218
46	273	578
47	865	652
48	670	461
49	98	370
50	113	668
51	398	285
52	780	171
53	11	213
54	261	6
55	285	159
56	997	384
57	483	90
58	486	48
59	939	267
60	312	253
61	678	965
62	830	422
63	23	631
64	771	451
65	679	643
66	464	981
67	602	456
68	152	931
69	762	297
70	573	357
71	37	988
72	185	899
73	209	142
74	218	226
75	115	458
76	35	199
77	987	56
78	229	448
79	603	772
80	908	107
81	836	401
82	672	193
83	534	514
84	80	157
85	446	734
86	968	329
87	840	157
88	979	245
89	753	877
90	756	126
91	49	453
92	933	415
93	84	665
94	19	546
95	623	715
96	739	237
97	606	386
98	455	620
99	979	82
100	581	962
101	753	350
102	349	872
103	177	375
104	456	797
105	963	721
106	187	338
107	781	997
108	833	895
109	236	74
110	92	356
111	892	237
112	47	361
113	639	347
114	276	728
115	204	595
116	294	574
117	97	678
118	940	7
119	210	827
120	580	102
121	630	535
122	734	277
123	102	317
124	611	307
125	275	491
126	37	910
127	768	952
128	896	771
129	118	177
130	754	29
131	528	134
132	747	504
133	538	936
134	406	687
135	413	701
136	891	192
137	409	363
138	430	81
139	860	188
140	500	82
141	840	904
142	915	73
143	169	155
144	183	764
145	598	17
146	968	82
147	665	928
148	60	575
149	362	564
150	744	580
151	69	963
152	792	76
153	795	198
154	951	963
155	388	300
156	779	16
157	359	560
158	421	308
159	410	433
160	599	740
161	331	978
162	399	690
163	37	726
164	737	886
165	481	650
166	13	152
167	117	515
168	804	250
169	41	633
170	273	10
171	927	54
172	713	400
173	781	464
174	325	195
175	635	822
176	367	832
177	938	755
178	173	483
179	234	507
180	284	948
181	944	444
182	100	478
183	703	954
184	555	520
185	681	749
186	665	463
187	615	926
188	858	639
189	488	820
190	52	405
191	830	585
192	982	452
193	48	612
194	905	460
195	952	181
196	608	228
197	453	555
198	738	248
199	816	865
200	147	513
201	151	593
202	265	671
203	843	894
204	321	772
205	760	607
206	858	461
207	586	91
208	187	351
209	978	396
210	976	604
211	314	173
212	722	792
213	695	592
214	877	755
215	461	915
216	292	250
217	30	5
218	508	971
219	89	120
DEMAND_SECTION
1	0
2	1
3	1
4	1
5	1
6	1
7	1
8	1
9	1
10	1
11	1
12	1
13	1
14	1
15	1
16	1
17	1
18	1
19	1
20	1
21	1
22	1
23	1
24	1
25	1
26	1
27	1
28	1
29	1
30	1
31	1
32	1
33	1
34	1
35	1
36	1
37	1
38	1
39	1
40	1
41	1
42	1
43	1
44	1
45	1
46	1
47	1
48	1
49	1
50	1
51	1
52	1
53	1
54	1
55	1
56	1
57	1
58	1
59	1
60	1
61	1
62	1
63	1
64	1
65	1
66	1
67	1
68	1
69	1
70	1
71	1
72	1
73	1
74	1
75	1
76	1
77	1
78	1
79	1
80	1
81	1
82	1
83	1
84	1
85	1
86	1
87	1
88	1
89	1
90	1
91	1
92	1
93	1
94	1
95	1
96	1
97	1
98	1
99	1
100	1
101	1
102	1
103	1
104	1
105	1
106	1
107	1
108	1
109	1
110	1
111	1
112	1
113	1
114	1
115	1
116	1
117	1
118	1
119	1
120	1
121	1
122	1
123	1
124	1
125	1
126	1
127	1
128	1
129	1
130	1
131	1
132	1
133	1
134	1
135	1
136	1
137	1
138	1
139	1
140	1
141	1
142	1
143	1
144	1
145	1
146	1
147	1
148	1
149	1
150	1
151	1
152	1
153	1
154	1
155	1
156	1
157	1
158	1
159	1
160	1
161	1
162	1
163	1
164	1
165	1
166	1
167	1
168	1
169	1
170	1
171	1
172	1
173	1
174	1
175	1
176	1
177	1
178	1
179	1
180	1
181	1
182	1
183	1
184	1
185	1
186	1
187	1
188	1
189	1
190	1
191	1
192	1
193	1
194	1
195	1
196	1
197	1
198	1
199	1
200	1
201	1
202	1
203	1
204	1
205	1
206	1
207	1
208	1
209	1
210	1
211	1
212	1
213	1
214	1
215	1
216	1
217	1
218	1
219	1
DEPOT_SECTION
1
-1
EOF
